language ESSENCE' 1.0

$---------------------------------------------------------------------------
$ Actual parameters
$---------------------------------------------------------------------------

letting n be 6

$---------------------------------------------------------------------------
$ Actual parameters
$---------------------------------------------------------------------------

letting squareType be [
[0,0,1,0,0,0],
[0,1,0,1,0,2],
[0,0,0,0,0,0],
[0,0,0,0,0,0],
[2,0,1,0,1,0],
[0,0,0,1,0,0],
]

letting clues be[
[0,0,0,0,0,0],
[0,0,0,0,0,3],
[0,0,0,0,0,0],
[0,0,0,0,0,0],
[3,0,0,0,0,0],
[0,0,0,0,0,0],
]
